(set-logic QF_LIA)
(declare-fun x0 () Int)
(declare-fun x1 () Int)
(declare-fun x2 () Int)
(declare-fun x3 () Int)
(declare-fun x4 () Int)
(declare-fun x5 () Int)
(declare-fun x6 () Int)
(declare-fun x7 () Int)
(declare-fun x8 () Int)
(declare-fun x9 () Int)
(declare-fun A0 () Bool)
(declare-fun A1 () Bool)
(declare-fun A2 () Bool)
(declare-fun A3 () Bool)
(declare-fun A4 () Bool)
(declare-fun A5 () Bool)
(declare-fun A6 () Bool)
(declare-fun A7 () Bool)
(declare-fun A8 () Bool)
(declare-fun A9 () Bool)
(assert (let ((.def_0 (* 1 x4))) (let ((.def_1 (< .def_0 1))) (let ((.def_2 (* (- 1) x4))) (let ((.def_3 (* (- 1) x0))) (let ((.def_4 (+ .def_3 .def_2))) (let ((.def_5 (< .def_4 1))) (let ((.def_6 (not .def_5))) (let ((.def_7 (or .def_6 .def_1))) (let ((.def_8 (or A0 A9))) (let ((.def_9 (not .def_8))) (let ((.def_10 (= .def_9 .def_7))) (let ((.def_11 (not .def_1))) (let ((.def_12 (not A4))) (let ((.def_13 (and .def_12 .def_11))) (let ((.def_14 (* (- 1) x9))) (let ((.def_15 (< .def_14 1))) (let ((.def_16 (not .def_15))) (let ((.def_17 (and .def_16 A4))) (let ((.def_18 (not .def_17))) (let ((.def_19 (or .def_18 .def_13))) (let ((.def_20 (or .def_19 .def_10))) (let ((.def_21 (not .def_20))) (let ((.def_22 (not A9))) (let ((.def_23 (and .def_22 A5))) (let ((.def_24 (* (- 1) x6))) (let ((.def_25 (+ .def_24 .def_0))) (let ((.def_26 (< .def_25 1))) (let ((.def_27 (< .def_24 (- 1)))) (let ((.def_28 (and .def_27 .def_26))) (let ((.def_29 (not .def_28))) (let ((.def_30 (or .def_29 .def_23))) (let ((.def_31 (not .def_30))) (let ((.def_32 (* (- 1) x7))) (let ((.def_33 (< .def_32 (- 1)))) (let ((.def_34 (or A7 .def_33))) (let ((.def_35 (not .def_34))) (let ((.def_36 (* 1 x1))) (let ((.def_37 (+ .def_2 .def_36))) (let ((.def_38 (< .def_37 (- 1)))) (let ((.def_39 (and .def_38 .def_12))) (let ((.def_40 (not .def_39))) (let ((.def_41 (or .def_40 .def_35))) (let ((.def_42 (not .def_41))) (let ((.def_43 (and .def_42 .def_31))) (let ((.def_44 (not .def_43))) (let ((.def_45 (and .def_44 .def_21))) (let ((.def_46 (* 1 x3))) (let ((.def_47 (* (- 1) x5))) (let ((.def_48 (+ .def_47 .def_46))) (let ((.def_49 (< .def_48 1))) (let ((.def_50 (not A3))) (let ((.def_51 (and .def_50 .def_49))) (let ((.def_52 (< .def_47 (- 1)))) (let ((.def_53 (* 1 x6))) (let ((.def_54 (+ .def_47 .def_53))) (let ((.def_55 (< .def_54 (- 1)))) (let ((.def_56 (and .def_55 .def_52))) (let ((.def_57 (or .def_56 .def_51))) (let ((.def_58 (* 1 x7))) (let ((.def_59 (+ .def_46 .def_58))) (let ((.def_60 (< .def_59 1))) (let ((.def_61 (not .def_60))) (let ((.def_62 (and A1 .def_61))) (let ((.def_63 (* 1 x8))) (let ((.def_64 (< .def_63 (- 1)))) (let ((.def_65 (not .def_64))) (let ((.def_66 (or A4 .def_65))) (let ((.def_67 (or .def_66 .def_62))) (let ((.def_68 (not .def_67))) (let ((.def_69 (= .def_68 .def_57))) (let ((.def_70 (not .def_69))) (let ((.def_71 (and A2 A8))) (let ((.def_72 (not .def_71))) (let ((.def_73 (or A2 A4))) (let ((.def_74 (not .def_73))) (let ((.def_75 (or .def_74 .def_72))) (let ((.def_76 (not .def_75))) (let ((.def_77 (not A1))) (let ((.def_78 (and .def_22 .def_77))) (let ((.def_79 (* 1 x2))) (let ((.def_80 (+ .def_79 .def_2))) (let ((.def_81 (< .def_80 1))) (let ((.def_82 (* (- 1) x3))) (let ((.def_83 (+ .def_82 .def_53))) (let ((.def_84 (< .def_83 1))) (let ((.def_85 (and .def_84 .def_81))) (let ((.def_86 (not .def_85))) (let ((.def_87 (or .def_86 .def_78))) (let ((.def_88 (not .def_87))) (let ((.def_89 (= .def_88 .def_76))) (let ((.def_90 (not .def_89))) (let ((.def_91 (and .def_90 .def_70))) (let ((.def_92 (not .def_91))) (let ((.def_93 (or .def_92 .def_45))) (let ((.def_94 (and A7 .def_77))) (let ((.def_95 (not .def_94))) (let ((.def_96 (or A3 A1))) (let ((.def_97 (or .def_96 .def_95))) (let ((.def_98 (not .def_97))) (let ((.def_99 (* (- 1) x8))) (let ((.def_100 (< .def_99 1))) (let ((.def_101 (not .def_100))) (let ((.def_102 (not A5))) (let ((.def_103 (and .def_102 .def_101))) (let ((.def_104 (not .def_103))) (let ((.def_105 (+ .def_79 .def_0))) (let ((.def_106 (< .def_105 (- 1)))) (let ((.def_107 (and A6 .def_106))) (let ((.def_108 (and .def_107 .def_104))) (let ((.def_109 (not .def_108))) (let ((.def_110 (and .def_109 .def_98))) (let ((.def_111 (not .def_110))) (let ((.def_112 (= A7 A3))) (let ((.def_113 (+ .def_24 .def_46))) (let ((.def_114 (< .def_113 (- 1)))) (let ((.def_115 (or .def_114 .def_102))) (let ((.def_116 (not .def_115))) (let ((.def_117 (= .def_116 .def_112))) (let ((.def_118 (not A6))) (let ((.def_119 (+ .def_63 .def_3))) (let ((.def_120 (< .def_119 1))) (let ((.def_121 (not .def_120))) (let ((.def_122 (and .def_121 .def_118))) (let ((.def_123 (not .def_122))) (let ((.def_124 (not A2))) (let ((.def_125 (and .def_124 .def_12))) (let ((.def_126 (not .def_125))) (let ((.def_127 (and .def_126 .def_123))) (let ((.def_128 (not .def_127))) (let ((.def_129 (or .def_128 .def_117))) (let ((.def_130 (or .def_129 .def_111))) (let ((.def_131 (= .def_50 .def_124))) (let ((.def_132 (not .def_131))) (let ((.def_133 (not A8))) (let ((.def_134 (and .def_133 .def_102))) (let ((.def_135 (or .def_134 .def_132))) (let ((.def_136 (* (- 1) x2))) (let ((.def_137 (+ .def_136 .def_3))) (let ((.def_138 (< .def_137 (- 1)))) (let ((.def_139 (and A2 .def_138))) (let ((.def_140 (not .def_139))) (let ((.def_141 (< .def_24 1))) (let ((.def_142 (not .def_141))) (let ((.def_143 (* 1 x9))) (let ((.def_144 (+ .def_143 .def_32))) (let ((.def_145 (< .def_144 (- 1)))) (let ((.def_146 (not .def_145))) (let ((.def_147 (or .def_146 .def_142))) (let ((.def_148 (not .def_147))) (let ((.def_149 (or .def_148 .def_140))) (let ((.def_150 (and .def_149 .def_135))) (let ((.def_151 (+ .def_2 .def_99))) (let ((.def_152 (< .def_151 (- 1)))) (let ((.def_153 (and .def_152 .def_77))) (let ((.def_154 (not .def_153))) (let ((.def_155 (or A7 .def_118))) (let ((.def_156 (not .def_155))) (let ((.def_157 (or .def_156 .def_154))) (let ((.def_158 (not .def_157))) (let ((.def_159 (+ .def_2 .def_14))) (let ((.def_160 (< .def_159 1))) (let ((.def_161 (and .def_160 .def_102))) (let ((.def_162 (not A0))) (let ((.def_163 (and A1 .def_162))) (let ((.def_164 (or .def_163 .def_161))) (let ((.def_165 (and .def_164 .def_158))) (let ((.def_166 (not .def_165))) (let ((.def_167 (or .def_166 .def_150))) (let ((.def_168 (not .def_167))) (let ((.def_169 (or .def_168 .def_130))) (let ((.def_170 (not .def_169))) (let ((.def_171 (or .def_170 .def_93))) (let ((.def_172 (not .def_171))) (let ((.def_173 (<= x9 1))) (let ((.def_174 (<= 0 x9))) (let ((.def_175 (<= x8 1))) (let ((.def_176 (<= 0 x8))) (let ((.def_177 (<= x7 1))) (let ((.def_178 (<= 0 x7))) (let ((.def_179 (<= x6 1))) (let ((.def_180 (<= 0 x6))) (let ((.def_181 (<= x5 1))) (let ((.def_182 (<= 0 x5))) (let ((.def_183 (<= x4 1))) (let ((.def_184 (<= 0 x4))) (let ((.def_185 (<= x3 1))) (let ((.def_186 (<= 0 x3))) (let ((.def_187 (<= x2 1))) (let ((.def_188 (<= 0 x2))) (let ((.def_189 (<= x1 1))) (let ((.def_190 (<= 0 x1))) (let ((.def_191 (<= x0 1))) (let ((.def_192 (<= 0 x0))) (let ((.def_193 (and .def_192 .def_191 .def_190 .def_189 .def_188 .def_187 .def_186 .def_185 .def_184 .def_183 .def_182 .def_181 .def_180 .def_179 .def_178 .def_177 .def_176 .def_175 .def_174 .def_173 .def_172))) .def_193)))))))))))))))))))))))))))))))))))))))))))))))))))))))))))))))))))))))))))))))))))))))))))))))))))))))))))))))))))))))))))))))))))))))))))))))))))))))))))))))))))))))))))))))))))))))))))))))))))
(check-sat)
